(set-info :smt-lib-version 2.6)
(set-logic QF_UF)
(set-info :source |
Generated by: Aman Goel (amangoel@umich.edu), Karem A. Sakallah (karem@umich.edu)
Generated on: 2018-04-06

Generated by the tool Averroes 2 (successor of [1]) which implements safety property
verification on hardware systems.

This SMT problem belongs to a set of SMT problems generated by applying Averroes 2
to benchmarks derived from [2-5].

A total of 412 systems (345 from [2], 19 from [3], 26 from [4], 22 from [5]) were
syntactically converted from their original formats (using [6, 7]), and given to 
Averroes 2 to perform property checking with abstraction (wide bit-vectors -> terms, 
wide operators -> UF) using SMT solvers [8, 9].

[1] Lee S., Sakallah K.A. (2014) Unbounded Scalable Verification Based on Approximate
Property-Directed Reachability and Datapath Abstraction. In: Biere A., Bloem R. (eds)
Computer Aided Verification. CAV 2014. Lecture Notes in Computer Science, vol 8559.
Springer, Cham
[2] http://fmv.jku.at/aiger/index.html#beem
[3] http://www.cs.cmu.edu/~modelcheck/vcegar
[4] http://www.cprover.org/hardware/v2c
[5] http://github.com/aman-goel/verilogbench
[6] http://www.clifford.at/yosys
[7] http://github.com/chengyinwu/V3
[8] http://github.com/Z3Prover/z3
[9] http://github.com/SRI-CSL/yices2

id: leader_election.4.prop1
query-maker: "Yices 2"
query-time: 0.149000 ms
query-class: abstract
query-category: oneshot
query-type: regular
status: sat
|)
(set-info :license "https://creativecommons.org/licenses/by/4.0/")
(set-info :category "industrial")

;
(set-info :status sat)
(declare-sort utt$8 0)
(declare-sort utt$24 0)
(declare-sort utt$32 0)
(declare-fun Concat_32_8_24 (utt$8 utt$24 ) utt$32)
(declare-fun GrEq_1_32_32 (utt$32 utt$32 ) Bool)
(declare-fun y$1 () Bool)
(declare-fun y$101 () Bool)
(declare-fun y$10119 () Bool)
(declare-fun y$10131 () Bool)
(declare-fun y$103 () Bool)
(declare-fun y$105 () Bool)
(declare-fun y$107 () Bool)
(declare-fun y$109 () Bool)
(declare-fun y$11 () Bool)
(declare-fun y$111 () Bool)
(declare-fun y$113 () Bool)
(declare-fun y$115 () Bool)
(declare-fun y$117 () Bool)
(declare-fun y$119 () Bool)
(declare-fun y$121 () Bool)
(declare-fun y$123 () Bool)
(declare-fun y$125 () Bool)
(declare-fun y$127 () Bool)
(declare-fun y$129 () Bool)
(declare-fun y$13 () Bool)
(declare-fun y$131 () Bool)
(declare-fun y$133 () Bool)
(declare-fun y$135 () Bool)
(declare-fun y$137 () Bool)
(declare-fun y$139 () Bool)
(declare-fun y$141 () Bool)
(declare-fun y$143 () Bool)
(declare-fun y$145 () Bool)
(declare-fun y$147 () Bool)
(declare-fun y$149 () Bool)
(declare-fun y$15 () Bool)
(declare-fun y$151 () Bool)
(declare-fun y$153 () Bool)
(declare-fun y$155 () Bool)
(declare-fun y$157 () Bool)
(declare-fun y$159 () Bool)
(declare-fun y$161 () Bool)
(declare-fun y$163 () Bool)
(declare-fun y$165 () Bool)
(declare-fun y$167 () Bool)
(declare-fun y$169 () Bool)
(declare-fun y$17 () Bool)
(declare-fun y$172 () Bool)
(declare-fun y$174 () Bool)
(declare-fun y$176 () Bool)
(declare-fun y$178 () Bool)
(declare-fun y$180 () Bool)
(declare-fun y$182 () Bool)
(declare-fun y$184 () Bool)
(declare-fun y$186 () Bool)
(declare-fun y$188 () Bool)
(declare-fun y$19 () Bool)
(declare-fun y$190 () Bool)
(declare-fun y$192 () Bool)
(declare-fun y$194 () Bool)
(declare-fun y$196 () Bool)
(declare-fun y$198 () Bool)
(declare-fun y$200 () Bool)
(declare-fun y$202 () Bool)
(declare-fun y$204 () Bool)
(declare-fun y$206 () Bool)
(declare-fun y$208 () Bool)
(declare-fun y$21 () Bool)
(declare-fun y$210 () Bool)
(declare-fun y$212 () Bool)
(declare-fun y$214 () Bool)
(declare-fun y$216 () Bool)
(declare-fun y$218 () Bool)
(declare-fun y$220 () Bool)
(declare-fun y$222 () Bool)
(declare-fun y$224 () Bool)
(declare-fun y$226 () Bool)
(declare-fun y$228 () Bool)
(declare-fun y$23 () Bool)
(declare-fun y$230 () Bool)
(declare-fun y$232 () Bool)
(declare-fun y$234 () Bool)
(declare-fun y$236 () Bool)
(declare-fun y$238 () Bool)
(declare-fun y$240 () Bool)
(declare-fun y$242 () Bool)
(declare-fun y$244 () Bool)
(declare-fun y$246 () Bool)
(declare-fun y$248 () Bool)
(declare-fun y$25 () Bool)
(declare-fun y$250 () Bool)
(declare-fun y$252 () Bool)
(declare-fun y$254 () Bool)
(declare-fun y$256 () Bool)
(declare-fun y$258 () Bool)
(declare-fun y$260 () Bool)
(declare-fun y$262 () Bool)
(declare-fun y$264 () Bool)
(declare-fun y$266 () Bool)
(declare-fun y$268 () Bool)
(declare-fun y$27 () Bool)
(declare-fun y$270 () Bool)
(declare-fun y$272 () Bool)
(declare-fun y$274 () Bool)
(declare-fun y$276 () Bool)
(declare-fun y$278 () Bool)
(declare-fun y$280 () Bool)
(declare-fun y$282 () Bool)
(declare-fun y$284 () Bool)
(declare-fun y$286 () Bool)
(declare-fun y$288 () Bool)
(declare-fun y$29 () Bool)
(declare-fun y$290 () Bool)
(declare-fun y$292 () Bool)
(declare-fun y$294 () Bool)
(declare-fun y$296 () Bool)
(declare-fun y$298 () Bool)
(declare-fun y$3 () Bool)
(declare-fun y$300 () Bool)
(declare-fun y$302 () Bool)
(declare-fun y$304 () Bool)
(declare-fun y$306 () Bool)
(declare-fun y$308 () Bool)
(declare-fun y$31 () Bool)
(declare-fun y$310 () Bool)
(declare-fun y$312 () Bool)
(declare-fun y$314 () Bool)
(declare-fun y$316 () Bool)
(declare-fun y$318 () Bool)
(declare-fun y$320 () Bool)
(declare-fun y$322 () Bool)
(declare-fun y$324 () Bool)
(declare-fun y$326 () Bool)
(declare-fun y$328 () Bool)
(declare-fun y$33 () Bool)
(declare-fun y$330 () Bool)
(declare-fun y$332 () Bool)
(declare-fun y$334 () Bool)
(declare-fun y$336 () Bool)
(declare-fun y$338 () Bool)
(declare-fun y$340 () Bool)
(declare-fun y$342 () Bool)
(declare-fun y$344 () Bool)
(declare-fun y$346 () Bool)
(declare-fun y$348 () Bool)
(declare-fun y$35 () Bool)
(declare-fun y$350 () Bool)
(declare-fun y$352 () Bool)
(declare-fun y$354 () Bool)
(declare-fun y$356 () Bool)
(declare-fun y$358 () Bool)
(declare-fun y$360 () Bool)
(declare-fun y$362 () Bool)
(declare-fun y$364 () Bool)
(declare-fun y$366 () Bool)
(declare-fun y$368 () Bool)
(declare-fun y$37 () Bool)
(declare-fun y$370 () Bool)
(declare-fun y$372 () Bool)
(declare-fun y$374 () Bool)
(declare-fun y$376 () Bool)
(declare-fun y$378 () Bool)
(declare-fun y$380 () Bool)
(declare-fun y$382 () Bool)
(declare-fun y$384 () Bool)
(declare-fun y$386 () Bool)
(declare-fun y$388 () Bool)
(declare-fun y$39 () Bool)
(declare-fun y$390 () Bool)
(declare-fun y$392 () Bool)
(declare-fun y$394 () Bool)
(declare-fun y$396 () Bool)
(declare-fun y$398 () Bool)
(declare-fun y$400 () Bool)
(declare-fun y$402 () Bool)
(declare-fun y$404 () Bool)
(declare-fun y$406 () Bool)
(declare-fun y$408 () Bool)
(declare-fun y$41 () Bool)
(declare-fun y$410 () Bool)
(declare-fun y$412 () Bool)
(declare-fun y$414 () Bool)
(declare-fun y$416 () Bool)
(declare-fun y$418 () Bool)
(declare-fun y$420 () Bool)
(declare-fun y$422 () Bool)
(declare-fun y$424 () Bool)
(declare-fun y$426 () Bool)
(declare-fun y$428 () Bool)
(declare-fun y$43 () Bool)
(declare-fun y$430 () Bool)
(declare-fun y$432 () Bool)
(declare-fun y$434 () Bool)
(declare-fun y$436 () Bool)
(declare-fun y$438 () Bool)
(declare-fun y$440 () Bool)
(declare-fun y$442 () Bool)
(declare-fun y$444 () Bool)
(declare-fun y$446 () Bool)
(declare-fun y$448 () Bool)
(declare-fun y$45 () Bool)
(declare-fun y$450 () Bool)
(declare-fun y$452 () Bool)
(declare-fun y$47 () Bool)
(declare-fun y$49 () Bool)
(declare-fun y$5 () Bool)
(declare-fun y$51 () Bool)
(declare-fun y$53 () Bool)
(declare-fun y$55 () Bool)
(declare-fun y$57 () Bool)
(declare-fun y$59 () Bool)
(declare-fun y$61 () Bool)
(declare-fun y$63 () Bool)
(declare-fun y$65 () Bool)
(declare-fun y$67 () Bool)
(declare-fun y$69 () Bool)
(declare-fun y$7 () Bool)
(declare-fun y$71 () Bool)
(declare-fun y$73 () Bool)
(declare-fun y$75 () Bool)
(declare-fun y$77 () Bool)
(declare-fun y$79 () Bool)
(declare-fun y$81 () Bool)
(declare-fun y$83 () Bool)
(declare-fun y$85 () Bool)
(declare-fun y$87 () Bool)
(declare-fun y$89 () Bool)
(declare-fun y$9 () Bool)
(declare-fun y$91 () Bool)
(declare-fun y$93 () Bool)
(declare-fun y$95 () Bool)
(declare-fun y$97 () Bool)
(declare-fun y$99 () Bool)
(declare-fun y$9975 () Bool)
(declare-fun y$9978 () Bool)
(declare-fun y$9979 () Bool)
(declare-fun y$a_got_msg_Node_0 () Bool)
(declare-fun y$a_got_msg_Node_1 () Bool)
(declare-fun y$a_got_msg_Node_2 () Bool)
(declare-fun y$a_got_msg_Node_3 () Bool)
(declare-fun y$a_got_msg_Node_4 () Bool)
(declare-fun y$a_got_msg_Node_5 () Bool)
(declare-fun y$a_got_msg_Node_6 () Bool)
(declare-fun y$a_q1_Node_0 () Bool)
(declare-fun y$a_q1_Node_1 () Bool)
(declare-fun y$a_q1_Node_2 () Bool)
(declare-fun y$a_q1_Node_3 () Bool)
(declare-fun y$a_q1_Node_4 () Bool)
(declare-fun y$a_q1_Node_5 () Bool)
(declare-fun y$a_q1_Node_6 () Bool)
(declare-fun y$a_q1a_Node_0 () Bool)
(declare-fun y$a_q1a_Node_1 () Bool)
(declare-fun y$a_q1a_Node_2 () Bool)
(declare-fun y$a_q1a_Node_3 () Bool)
(declare-fun y$a_q1a_Node_4 () Bool)
(declare-fun y$a_q1a_Node_5 () Bool)
(declare-fun y$a_q1a_Node_6 () Bool)
(declare-fun y$a_q1n_Node_0 () Bool)
(declare-fun y$a_q1n_Node_1 () Bool)
(declare-fun y$a_q1n_Node_2 () Bool)
(declare-fun y$a_q1n_Node_3 () Bool)
(declare-fun y$a_q1n_Node_4 () Bool)
(declare-fun y$a_q1n_Node_5 () Bool)
(declare-fun y$a_q1n_Node_6 () Bool)
(declare-fun y$a_q2_Node_0 () Bool)
(declare-fun y$a_q2_Node_1 () Bool)
(declare-fun y$a_q2_Node_2 () Bool)
(declare-fun y$a_q2_Node_3 () Bool)
(declare-fun y$a_q2_Node_4 () Bool)
(declare-fun y$a_q2_Node_5 () Bool)
(declare-fun y$a_q2_Node_6 () Bool)
(declare-fun y$a_q2a_Node_0 () Bool)
(declare-fun y$a_q2a_Node_1 () Bool)
(declare-fun y$a_q2a_Node_2 () Bool)
(declare-fun y$a_q2a_Node_3 () Bool)
(declare-fun y$a_q2a_Node_4 () Bool)
(declare-fun y$a_q2a_Node_5 () Bool)
(declare-fun y$a_q2a_Node_6 () Bool)
(declare-fun y$a_q2n_Node_0 () Bool)
(declare-fun y$a_q2n_Node_1 () Bool)
(declare-fun y$a_q2n_Node_2 () Bool)
(declare-fun y$a_q2n_Node_3 () Bool)
(declare-fun y$a_q2n_Node_4 () Bool)
(declare-fun y$a_q2n_Node_5 () Bool)
(declare-fun y$a_q2n_Node_6 () Bool)
(declare-fun y$a_q_channel_ch_0 () Bool)
(declare-fun y$a_q_channel_ch_1 () Bool)
(declare-fun y$a_q_channel_ch_2 () Bool)
(declare-fun y$a_q_channel_ch_3 () Bool)
(declare-fun y$a_q_channel_ch_4 () Bool)
(declare-fun y$a_q_channel_ch_5 () Bool)
(declare-fun y$a_q_channel_ch_6 () Bool)
(declare-fun y$a_qw_Node_0 () Bool)
(declare-fun y$a_qw_Node_1 () Bool)
(declare-fun y$a_qw_Node_2 () Bool)
(declare-fun y$a_qw_Node_3 () Bool)
(declare-fun y$a_qw_Node_4 () Bool)
(declare-fun y$a_qw_Node_5 () Bool)
(declare-fun y$a_qw_Node_6 () Bool)
(declare-fun y$a_qwcheck_Node_0 () Bool)
(declare-fun y$a_qwcheck_Node_1 () Bool)
(declare-fun y$a_qwcheck_Node_2 () Bool)
(declare-fun y$a_qwcheck_Node_3 () Bool)
(declare-fun y$a_qwcheck_Node_4 () Bool)
(declare-fun y$a_qwcheck_Node_5 () Bool)
(declare-fun y$a_qwcheck_Node_6 () Bool)
(declare-fun y$a_start_Node_0 () Bool)
(declare-fun y$a_start_Node_1 () Bool)
(declare-fun y$a_start_Node_2 () Bool)
(declare-fun y$a_start_Node_3 () Bool)
(declare-fun y$a_start_Node_4 () Bool)
(declare-fun y$a_start_Node_5 () Bool)
(declare-fun y$a_start_Node_6 () Bool)
(declare-fun y$a_wait_Node_0 () Bool)
(declare-fun y$a_wait_Node_1 () Bool)
(declare-fun y$a_wait_Node_2 () Bool)
(declare-fun y$a_wait_Node_3 () Bool)
(declare-fun y$a_wait_Node_4 () Bool)
(declare-fun y$a_wait_Node_5 () Bool)
(declare-fun y$a_wait_Node_6 () Bool)
(declare-fun y$dve_invalid () Bool)
(declare-fun y$id232 () Bool)
(declare-fun y$id232_op () Bool)
(declare-fun y$n0s24 () utt$24)
(declare-fun y$n0s32 () utt$32)
(declare-fun y$n0s8 () utt$8)
(declare-fun y$n10s8 () utt$8)
(declare-fun y$n11s8 () utt$8)
(declare-fun y$n12s8 () utt$8)
(declare-fun y$n13s8 () utt$8)
(declare-fun y$n14s8 () utt$8)
(declare-fun y$n1s32 () utt$32)
(declare-fun y$n1s8 () utt$8)
(declare-fun y$n21s8 () utt$8)
(declare-fun y$n23s8 () utt$8)
(declare-fun y$n24s8 () utt$8)
(declare-fun y$n2s32 () utt$32)
(declare-fun y$n2s8 () utt$8)
(declare-fun y$n30s32 () utt$32)
(declare-fun y$n30s8 () utt$8)
(declare-fun y$n36s8 () utt$8)
(declare-fun y$n3s8 () utt$8)
(declare-fun y$n44s8 () utt$8)
(declare-fun y$n4s8 () utt$8)
(declare-fun y$n51s8 () utt$8)
(declare-fun y$n53s8 () utt$8)
(declare-fun y$n54s8 () utt$8)
(declare-fun y$n5s8 () utt$8)
(declare-fun y$n60s32 () utt$32)
(declare-fun y$n6s8 () utt$8)
(declare-fun y$n7s8 () utt$8)
(declare-fun y$n8s8 () utt$8)
(declare-fun y$n9s8 () utt$8)
(declare-fun y$prop () Bool)
(declare-fun y$v3_1517448499_230 () Bool)
(declare-fun y$v3_1517448499_230_op () Bool)
(declare-fun y$v_active_Node_0 () utt$8)
(declare-fun y$v_active_Node_1 () utt$8)
(declare-fun y$v_active_Node_2 () utt$8)
(declare-fun y$v_active_Node_3 () utt$8)
(declare-fun y$v_active_Node_4 () utt$8)
(declare-fun y$v_active_Node_5 () utt$8)
(declare-fun y$v_active_Node_6 () utt$8)
(declare-fun y$v_buf_act_channel_ch_0 () utt$8)
(declare-fun y$v_buf_act_channel_ch_1 () utt$8)
(declare-fun y$v_buf_act_channel_ch_2 () utt$8)
(declare-fun y$v_buf_act_channel_ch_3 () utt$8)
(declare-fun y$v_buf_act_channel_ch_4 () utt$8)
(declare-fun y$v_buf_act_channel_ch_5 () utt$8)
(declare-fun y$v_buf_act_channel_ch_6 () utt$8)
(declare-fun y$v_buf_channel_ch_0_0 () utt$8)
(declare-fun y$v_buf_channel_ch_0_1 () utt$8)
(declare-fun y$v_buf_channel_ch_0_10 () utt$8)
(declare-fun y$v_buf_channel_ch_0_11 () utt$8)
(declare-fun y$v_buf_channel_ch_0_12 () utt$8)
(declare-fun y$v_buf_channel_ch_0_13 () utt$8)
(declare-fun y$v_buf_channel_ch_0_2 () utt$8)
(declare-fun y$v_buf_channel_ch_0_3 () utt$8)
(declare-fun y$v_buf_channel_ch_0_4 () utt$8)
(declare-fun y$v_buf_channel_ch_0_5 () utt$8)
(declare-fun y$v_buf_channel_ch_0_6 () utt$8)
(declare-fun y$v_buf_channel_ch_0_7 () utt$8)
(declare-fun y$v_buf_channel_ch_0_8 () utt$8)
(declare-fun y$v_buf_channel_ch_0_9 () utt$8)
(declare-fun y$v_buf_channel_ch_1_0 () utt$8)
(declare-fun y$v_buf_channel_ch_1_1 () utt$8)
(declare-fun y$v_buf_channel_ch_1_10 () utt$8)
(declare-fun y$v_buf_channel_ch_1_11 () utt$8)
(declare-fun y$v_buf_channel_ch_1_12 () utt$8)
(declare-fun y$v_buf_channel_ch_1_13 () utt$8)
(declare-fun y$v_buf_channel_ch_1_2 () utt$8)
(declare-fun y$v_buf_channel_ch_1_3 () utt$8)
(declare-fun y$v_buf_channel_ch_1_4 () utt$8)
(declare-fun y$v_buf_channel_ch_1_5 () utt$8)
(declare-fun y$v_buf_channel_ch_1_6 () utt$8)
(declare-fun y$v_buf_channel_ch_1_7 () utt$8)
(declare-fun y$v_buf_channel_ch_1_8 () utt$8)
(declare-fun y$v_buf_channel_ch_1_9 () utt$8)
(declare-fun y$v_buf_channel_ch_2_0 () utt$8)
(declare-fun y$v_buf_channel_ch_2_1 () utt$8)
(declare-fun y$v_buf_channel_ch_2_10 () utt$8)
(declare-fun y$v_buf_channel_ch_2_11 () utt$8)
(declare-fun y$v_buf_channel_ch_2_12 () utt$8)
(declare-fun y$v_buf_channel_ch_2_13 () utt$8)
(declare-fun y$v_buf_channel_ch_2_2 () utt$8)
(declare-fun y$v_buf_channel_ch_2_3 () utt$8)
(declare-fun y$v_buf_channel_ch_2_4 () utt$8)
(declare-fun y$v_buf_channel_ch_2_5 () utt$8)
(declare-fun y$v_buf_channel_ch_2_6 () utt$8)
(declare-fun y$v_buf_channel_ch_2_7 () utt$8)
(declare-fun y$v_buf_channel_ch_2_8 () utt$8)
(declare-fun y$v_buf_channel_ch_2_9 () utt$8)
(declare-fun y$v_buf_channel_ch_3_0 () utt$8)
(declare-fun y$v_buf_channel_ch_3_1 () utt$8)
(declare-fun y$v_buf_channel_ch_3_10 () utt$8)
(declare-fun y$v_buf_channel_ch_3_11 () utt$8)
(declare-fun y$v_buf_channel_ch_3_12 () utt$8)
(declare-fun y$v_buf_channel_ch_3_13 () utt$8)
(declare-fun y$v_buf_channel_ch_3_2 () utt$8)
(declare-fun y$v_buf_channel_ch_3_3 () utt$8)
(declare-fun y$v_buf_channel_ch_3_4 () utt$8)
(declare-fun y$v_buf_channel_ch_3_5 () utt$8)
(declare-fun y$v_buf_channel_ch_3_6 () utt$8)
(declare-fun y$v_buf_channel_ch_3_7 () utt$8)
(declare-fun y$v_buf_channel_ch_3_8 () utt$8)
(declare-fun y$v_buf_channel_ch_3_9 () utt$8)
(declare-fun y$v_buf_channel_ch_4_0 () utt$8)
(declare-fun y$v_buf_channel_ch_4_1 () utt$8)
(declare-fun y$v_buf_channel_ch_4_10 () utt$8)
(declare-fun y$v_buf_channel_ch_4_11 () utt$8)
(declare-fun y$v_buf_channel_ch_4_12 () utt$8)
(declare-fun y$v_buf_channel_ch_4_13 () utt$8)
(declare-fun y$v_buf_channel_ch_4_2 () utt$8)
(declare-fun y$v_buf_channel_ch_4_3 () utt$8)
(declare-fun y$v_buf_channel_ch_4_4 () utt$8)
(declare-fun y$v_buf_channel_ch_4_5 () utt$8)
(declare-fun y$v_buf_channel_ch_4_6 () utt$8)
(declare-fun y$v_buf_channel_ch_4_7 () utt$8)
(declare-fun y$v_buf_channel_ch_4_8 () utt$8)
(declare-fun y$v_buf_channel_ch_4_9 () utt$8)
(declare-fun y$v_buf_channel_ch_5_0 () utt$8)
(declare-fun y$v_buf_channel_ch_5_1 () utt$8)
(declare-fun y$v_buf_channel_ch_5_10 () utt$8)
(declare-fun y$v_buf_channel_ch_5_11 () utt$8)
(declare-fun y$v_buf_channel_ch_5_12 () utt$8)
(declare-fun y$v_buf_channel_ch_5_13 () utt$8)
(declare-fun y$v_buf_channel_ch_5_2 () utt$8)
(declare-fun y$v_buf_channel_ch_5_3 () utt$8)
(declare-fun y$v_buf_channel_ch_5_4 () utt$8)
(declare-fun y$v_buf_channel_ch_5_5 () utt$8)
(declare-fun y$v_buf_channel_ch_5_6 () utt$8)
(declare-fun y$v_buf_channel_ch_5_7 () utt$8)
(declare-fun y$v_buf_channel_ch_5_8 () utt$8)
(declare-fun y$v_buf_channel_ch_5_9 () utt$8)
(declare-fun y$v_buf_channel_ch_6_0 () utt$8)
(declare-fun y$v_buf_channel_ch_6_1 () utt$8)
(declare-fun y$v_buf_channel_ch_6_10 () utt$8)
(declare-fun y$v_buf_channel_ch_6_11 () utt$8)
(declare-fun y$v_buf_channel_ch_6_12 () utt$8)
(declare-fun y$v_buf_channel_ch_6_13 () utt$8)
(declare-fun y$v_buf_channel_ch_6_2 () utt$8)
(declare-fun y$v_buf_channel_ch_6_3 () utt$8)
(declare-fun y$v_buf_channel_ch_6_4 () utt$8)
(declare-fun y$v_buf_channel_ch_6_5 () utt$8)
(declare-fun y$v_buf_channel_ch_6_6 () utt$8)
(declare-fun y$v_buf_channel_ch_6_7 () utt$8)
(declare-fun y$v_buf_channel_ch_6_8 () utt$8)
(declare-fun y$v_buf_channel_ch_6_9 () utt$8)
(declare-fun y$v_know_Node_0 () utt$8)
(declare-fun y$v_know_Node_1 () utt$8)
(declare-fun y$v_know_Node_2 () utt$8)
(declare-fun y$v_know_Node_3 () utt$8)
(declare-fun y$v_know_Node_4 () utt$8)
(declare-fun y$v_know_Node_5 () utt$8)
(declare-fun y$v_know_Node_6 () utt$8)
(declare-fun y$v_max_Node_0 () utt$8)
(declare-fun y$v_max_Node_1 () utt$8)
(declare-fun y$v_max_Node_2 () utt$8)
(declare-fun y$v_max_Node_3 () utt$8)
(declare-fun y$v_max_Node_4 () utt$8)
(declare-fun y$v_max_Node_5 () utt$8)
(declare-fun y$v_max_Node_6 () utt$8)
(declare-fun y$v_neigh_Node_0 () utt$8)
(declare-fun y$v_neigh_Node_1 () utt$8)
(declare-fun y$v_neigh_Node_2 () utt$8)
(declare-fun y$v_neigh_Node_3 () utt$8)
(declare-fun y$v_neigh_Node_4 () utt$8)
(declare-fun y$v_neigh_Node_5 () utt$8)
(declare-fun y$v_neigh_Node_6 () utt$8)
(declare-fun y$v_nr_leaders () utt$8)
(declare-fun y$v_number_Node_0 () utt$8)
(declare-fun y$v_number_Node_1 () utt$8)
(declare-fun y$v_number_Node_2 () utt$8)
(declare-fun y$v_number_Node_3 () utt$8)
(declare-fun y$v_number_Node_4 () utt$8)
(declare-fun y$v_number_Node_5 () utt$8)
(declare-fun y$v_number_Node_6 () utt$8)
(declare-fun y$w$50 () utt$32)
(declare-fun y$w$50_op () utt$32)
(assert (distinct y$n0s8 y$n24s8 y$n1s8 y$n14s8 y$n6s8 y$n23s8 y$n21s8 y$n51s8 y$n2s8 y$n3s8 y$n4s8 y$n5s8 y$n7s8 y$n8s8 y$n9s8 y$n10s8 y$n11s8 y$n12s8 y$n13s8 y$n54s8 y$n44s8 y$n36s8 y$n30s8 y$n53s8))
(assert (distinct y$n30s32 y$n1s32 y$n60s32 y$n2s32 y$n0s32))
(assert (= y$a_got_msg_Node_0 (not y$1)))
(assert (= y$a_got_msg_Node_1 (not y$3)))
(assert (= y$a_got_msg_Node_2 (not y$5)))
(assert (= y$a_got_msg_Node_3 (not y$7)))
(assert (= y$a_got_msg_Node_4 (not y$9)))
(assert (= y$a_got_msg_Node_5 (not y$11)))
(assert (= y$a_got_msg_Node_6 (not y$13)))
(assert (= y$a_q1_Node_0 (not y$15)))
(assert (= y$a_q1_Node_1 (not y$17)))
(assert (= y$a_q1_Node_2 (not y$19)))
(assert (= y$a_q1_Node_3 (not y$21)))
(assert (= y$a_q1_Node_4 (not y$23)))
(assert (= y$a_q1_Node_5 (not y$25)))
(assert (= y$a_q1_Node_6 (not y$27)))
(assert (= y$a_q1a_Node_0 (not y$29)))
(assert (= y$a_q1a_Node_1 (not y$31)))
(assert (= y$a_q1a_Node_2 (not y$33)))
(assert (= y$a_q1a_Node_3 (not y$35)))
(assert (= y$a_q1a_Node_4 (not y$37)))
(assert (= y$a_q1a_Node_5 (not y$39)))
(assert (= y$a_q1a_Node_6 (not y$41)))
(assert (= y$a_q1n_Node_0 (not y$43)))
(assert (= y$a_q1n_Node_1 (not y$45)))
(assert (= y$a_q1n_Node_2 (not y$47)))
(assert (= y$a_q1n_Node_3 (not y$49)))
(assert (= y$a_q1n_Node_4 (not y$51)))
(assert (= y$a_q1n_Node_5 (not y$53)))
(assert (= y$a_q1n_Node_6 (not y$55)))
(assert (= y$a_q2_Node_0 (not y$57)))
(assert (= y$a_q2_Node_1 (not y$59)))
(assert (= y$a_q2_Node_2 (not y$61)))
(assert (= y$a_q2_Node_3 (not y$63)))
(assert (= y$a_q2_Node_4 (not y$65)))
(assert (= y$a_q2_Node_5 (not y$67)))
(assert (= y$a_q2_Node_6 (not y$69)))
(assert (= y$a_q2a_Node_0 (not y$71)))
(assert (= y$a_q2a_Node_1 (not y$73)))
(assert (= y$a_q2a_Node_2 (not y$75)))
(assert (= y$a_q2a_Node_3 (not y$77)))
(assert (= y$a_q2a_Node_4 (not y$79)))
(assert (= y$a_q2a_Node_5 (not y$81)))
(assert (= y$a_q2a_Node_6 (not y$83)))
(assert (= y$a_q2n_Node_0 (not y$85)))
(assert (= y$a_q2n_Node_1 (not y$87)))
(assert (= y$a_q2n_Node_2 (not y$89)))
(assert (= y$a_q2n_Node_3 (not y$91)))
(assert (= y$a_q2n_Node_4 (not y$93)))
(assert (= y$a_q2n_Node_5 (not y$95)))
(assert (= y$a_q2n_Node_6 (not y$97)))
(assert (= y$a_q_channel_ch_0 (not y$99)))
(assert (= y$a_q_channel_ch_1 (not y$101)))
(assert (= y$a_q_channel_ch_2 (not y$103)))
(assert (= y$a_q_channel_ch_3 (not y$105)))
(assert (= y$a_q_channel_ch_4 (not y$107)))
(assert (= y$a_q_channel_ch_5 (not y$109)))
(assert (= y$a_q_channel_ch_6 (not y$111)))
(assert (= y$a_qw_Node_0 (not y$113)))
(assert (= y$a_qw_Node_1 (not y$115)))
(assert (= y$a_qw_Node_2 (not y$117)))
(assert (= y$a_qw_Node_3 (not y$119)))
(assert (= y$a_qw_Node_4 (not y$121)))
(assert (= y$a_qw_Node_5 (not y$123)))
(assert (= y$a_qw_Node_6 (not y$125)))
(assert (= y$a_qwcheck_Node_0 (not y$127)))
(assert (= y$a_qwcheck_Node_1 (not y$129)))
(assert (= y$a_qwcheck_Node_2 (not y$131)))
(assert (= y$a_qwcheck_Node_3 (not y$133)))
(assert (= y$a_qwcheck_Node_4 (not y$135)))
(assert (= y$a_qwcheck_Node_5 (not y$137)))
(assert (= y$a_qwcheck_Node_6 (not y$139)))
(assert (= y$a_start_Node_0 (not y$141)))
(assert (= y$a_start_Node_1 (not y$143)))
(assert (= y$a_start_Node_2 (not y$145)))
(assert (= y$a_start_Node_3 (not y$147)))
(assert (= y$a_start_Node_4 (not y$149)))
(assert (= y$a_start_Node_5 (not y$151)))
(assert (= y$a_start_Node_6 (not y$153)))
(assert (= y$a_wait_Node_0 (not y$155)))
(assert (= y$a_wait_Node_1 (not y$157)))
(assert (= y$a_wait_Node_2 (not y$159)))
(assert (= y$a_wait_Node_3 (not y$161)))
(assert (= y$a_wait_Node_4 (not y$163)))
(assert (= y$a_wait_Node_5 (not y$165)))
(assert (= y$a_wait_Node_6 (not y$167)))
(assert (= y$dve_invalid (not y$169)))
(assert (= y$172 (= y$n0s8 y$v_active_Node_0)))
(assert (= y$174 (= y$n0s8 y$v_active_Node_1)))
(assert (= y$176 (= y$n0s8 y$v_active_Node_2)))
(assert (= y$178 (= y$n0s8 y$v_active_Node_3)))
(assert (= y$180 (= y$n0s8 y$v_active_Node_4)))
(assert (= y$182 (= y$n0s8 y$v_active_Node_5)))
(assert (= y$184 (= y$n0s8 y$v_active_Node_6)))
(assert (= y$186 (= y$n0s8 y$v_buf_act_channel_ch_0)))
(assert (= y$188 (= y$n0s8 y$v_buf_act_channel_ch_1)))
(assert (= y$190 (= y$n0s8 y$v_buf_act_channel_ch_2)))
(assert (= y$192 (= y$n0s8 y$v_buf_act_channel_ch_3)))
(assert (= y$194 (= y$n0s8 y$v_buf_act_channel_ch_4)))
(assert (= y$196 (= y$n0s8 y$v_buf_act_channel_ch_5)))
(assert (= y$198 (= y$n0s8 y$v_buf_act_channel_ch_6)))
(assert (= y$200 (= y$n0s8 y$v_buf_channel_ch_0_0)))
(assert (= y$202 (= y$n0s8 y$v_buf_channel_ch_0_1)))
(assert (= y$204 (= y$n0s8 y$v_buf_channel_ch_0_10)))
(assert (= y$206 (= y$n0s8 y$v_buf_channel_ch_0_11)))
(assert (= y$208 (= y$n0s8 y$v_buf_channel_ch_0_12)))
(assert (= y$210 (= y$n0s8 y$v_buf_channel_ch_0_13)))
(assert (= y$212 (= y$n0s8 y$v_buf_channel_ch_0_2)))
(assert (= y$214 (= y$n0s8 y$v_buf_channel_ch_0_3)))
(assert (= y$216 (= y$n0s8 y$v_buf_channel_ch_0_4)))
(assert (= y$218 (= y$n0s8 y$v_buf_channel_ch_0_5)))
(assert (= y$220 (= y$n0s8 y$v_buf_channel_ch_0_6)))
(assert (= y$222 (= y$n0s8 y$v_buf_channel_ch_0_7)))
(assert (= y$224 (= y$n0s8 y$v_buf_channel_ch_0_8)))
(assert (= y$226 (= y$n0s8 y$v_buf_channel_ch_0_9)))
(assert (= y$228 (= y$n0s8 y$v_buf_channel_ch_1_0)))
(assert (= y$230 (= y$n0s8 y$v_buf_channel_ch_1_1)))
(assert (= y$232 (= y$n0s8 y$v_buf_channel_ch_1_10)))
(assert (= y$234 (= y$n0s8 y$v_buf_channel_ch_1_11)))
(assert (= y$236 (= y$n0s8 y$v_buf_channel_ch_1_12)))
(assert (= y$238 (= y$n0s8 y$v_buf_channel_ch_1_13)))
(assert (= y$240 (= y$n0s8 y$v_buf_channel_ch_1_2)))
(assert (= y$242 (= y$n0s8 y$v_buf_channel_ch_1_3)))
(assert (= y$244 (= y$n0s8 y$v_buf_channel_ch_1_4)))
(assert (= y$246 (= y$n0s8 y$v_buf_channel_ch_1_5)))
(assert (= y$248 (= y$n0s8 y$v_buf_channel_ch_1_6)))
(assert (= y$250 (= y$n0s8 y$v_buf_channel_ch_1_7)))
(assert (= y$252 (= y$n0s8 y$v_buf_channel_ch_1_8)))
(assert (= y$254 (= y$n0s8 y$v_buf_channel_ch_1_9)))
(assert (= y$256 (= y$n0s8 y$v_buf_channel_ch_2_0)))
(assert (= y$258 (= y$n0s8 y$v_buf_channel_ch_2_1)))
(assert (= y$260 (= y$n0s8 y$v_buf_channel_ch_2_10)))
(assert (= y$262 (= y$n0s8 y$v_buf_channel_ch_2_11)))
(assert (= y$264 (= y$n0s8 y$v_buf_channel_ch_2_12)))
(assert (= y$266 (= y$n0s8 y$v_buf_channel_ch_2_13)))
(assert (= y$268 (= y$n0s8 y$v_buf_channel_ch_2_2)))
(assert (= y$270 (= y$n0s8 y$v_buf_channel_ch_2_3)))
(assert (= y$272 (= y$n0s8 y$v_buf_channel_ch_2_4)))
(assert (= y$274 (= y$n0s8 y$v_buf_channel_ch_2_5)))
(assert (= y$276 (= y$n0s8 y$v_buf_channel_ch_2_6)))
(assert (= y$278 (= y$n0s8 y$v_buf_channel_ch_2_7)))
(assert (= y$280 (= y$n0s8 y$v_buf_channel_ch_2_8)))
(assert (= y$282 (= y$n0s8 y$v_buf_channel_ch_2_9)))
(assert (= y$284 (= y$n0s8 y$v_buf_channel_ch_3_0)))
(assert (= y$286 (= y$n0s8 y$v_buf_channel_ch_3_1)))
(assert (= y$288 (= y$n0s8 y$v_buf_channel_ch_3_10)))
(assert (= y$290 (= y$n0s8 y$v_buf_channel_ch_3_11)))
(assert (= y$292 (= y$n0s8 y$v_buf_channel_ch_3_12)))
(assert (= y$294 (= y$n0s8 y$v_buf_channel_ch_3_13)))
(assert (= y$296 (= y$n0s8 y$v_buf_channel_ch_3_2)))
(assert (= y$298 (= y$n0s8 y$v_buf_channel_ch_3_3)))
(assert (= y$300 (= y$n0s8 y$v_buf_channel_ch_3_4)))
(assert (= y$302 (= y$n0s8 y$v_buf_channel_ch_3_5)))
(assert (= y$304 (= y$n0s8 y$v_buf_channel_ch_3_6)))
(assert (= y$306 (= y$n0s8 y$v_buf_channel_ch_3_7)))
(assert (= y$308 (= y$n0s8 y$v_buf_channel_ch_3_8)))
(assert (= y$310 (= y$n0s8 y$v_buf_channel_ch_3_9)))
(assert (= y$312 (= y$n0s8 y$v_buf_channel_ch_4_0)))
(assert (= y$314 (= y$n0s8 y$v_buf_channel_ch_4_1)))
(assert (= y$316 (= y$n0s8 y$v_buf_channel_ch_4_10)))
(assert (= y$318 (= y$n0s8 y$v_buf_channel_ch_4_11)))
(assert (= y$320 (= y$n0s8 y$v_buf_channel_ch_4_12)))
(assert (= y$322 (= y$n0s8 y$v_buf_channel_ch_4_13)))
(assert (= y$324 (= y$n0s8 y$v_buf_channel_ch_4_2)))
(assert (= y$326 (= y$n0s8 y$v_buf_channel_ch_4_3)))
(assert (= y$328 (= y$n0s8 y$v_buf_channel_ch_4_4)))
(assert (= y$330 (= y$n0s8 y$v_buf_channel_ch_4_5)))
(assert (= y$332 (= y$n0s8 y$v_buf_channel_ch_4_6)))
(assert (= y$334 (= y$n0s8 y$v_buf_channel_ch_4_7)))
(assert (= y$336 (= y$n0s8 y$v_buf_channel_ch_4_8)))
(assert (= y$338 (= y$n0s8 y$v_buf_channel_ch_4_9)))
(assert (= y$340 (= y$n0s8 y$v_buf_channel_ch_5_0)))
(assert (= y$342 (= y$n0s8 y$v_buf_channel_ch_5_1)))
(assert (= y$344 (= y$n0s8 y$v_buf_channel_ch_5_10)))
(assert (= y$346 (= y$n0s8 y$v_buf_channel_ch_5_11)))
(assert (= y$348 (= y$n0s8 y$v_buf_channel_ch_5_12)))
(assert (= y$350 (= y$n0s8 y$v_buf_channel_ch_5_13)))
(assert (= y$352 (= y$n0s8 y$v_buf_channel_ch_5_2)))
(assert (= y$354 (= y$n0s8 y$v_buf_channel_ch_5_3)))
(assert (= y$356 (= y$n0s8 y$v_buf_channel_ch_5_4)))
(assert (= y$358 (= y$n0s8 y$v_buf_channel_ch_5_5)))
(assert (= y$360 (= y$n0s8 y$v_buf_channel_ch_5_6)))
(assert (= y$362 (= y$n0s8 y$v_buf_channel_ch_5_7)))
(assert (= y$364 (= y$n0s8 y$v_buf_channel_ch_5_8)))
(assert (= y$366 (= y$n0s8 y$v_buf_channel_ch_5_9)))
(assert (= y$368 (= y$n0s8 y$v_buf_channel_ch_6_0)))
(assert (= y$370 (= y$n0s8 y$v_buf_channel_ch_6_1)))
(assert (= y$372 (= y$n0s8 y$v_buf_channel_ch_6_10)))
(assert (= y$374 (= y$n0s8 y$v_buf_channel_ch_6_11)))
(assert (= y$376 (= y$n0s8 y$v_buf_channel_ch_6_12)))
(assert (= y$378 (= y$n0s8 y$v_buf_channel_ch_6_13)))
(assert (= y$380 (= y$n0s8 y$v_buf_channel_ch_6_2)))
(assert (= y$382 (= y$n0s8 y$v_buf_channel_ch_6_3)))
(assert (= y$384 (= y$n0s8 y$v_buf_channel_ch_6_4)))
(assert (= y$386 (= y$n0s8 y$v_buf_channel_ch_6_5)))
(assert (= y$388 (= y$n0s8 y$v_buf_channel_ch_6_6)))
(assert (= y$390 (= y$n0s8 y$v_buf_channel_ch_6_7)))
(assert (= y$392 (= y$n0s8 y$v_buf_channel_ch_6_8)))
(assert (= y$394 (= y$n0s8 y$v_buf_channel_ch_6_9)))
(assert (= y$396 (= y$n0s8 y$v_know_Node_0)))
(assert (= y$398 (= y$n0s8 y$v_know_Node_1)))
(assert (= y$400 (= y$n0s8 y$v_know_Node_2)))
(assert (= y$402 (= y$n0s8 y$v_know_Node_3)))
(assert (= y$404 (= y$n0s8 y$v_know_Node_4)))
(assert (= y$406 (= y$n0s8 y$v_know_Node_5)))
(assert (= y$408 (= y$n0s8 y$v_know_Node_6)))
(assert (= y$410 (= y$n0s8 y$v_max_Node_0)))
(assert (= y$412 (= y$n0s8 y$v_max_Node_1)))
(assert (= y$414 (= y$n0s8 y$v_max_Node_2)))
(assert (= y$416 (= y$n0s8 y$v_max_Node_3)))
(assert (= y$418 (= y$n0s8 y$v_max_Node_4)))
(assert (= y$420 (= y$n0s8 y$v_max_Node_5)))
(assert (= y$422 (= y$n0s8 y$v_max_Node_6)))
(assert (= y$424 (= y$n0s8 y$v_neigh_Node_0)))
(assert (= y$426 (= y$n0s8 y$v_neigh_Node_1)))
(assert (= y$428 (= y$n0s8 y$v_neigh_Node_2)))
(assert (= y$430 (= y$n0s8 y$v_neigh_Node_3)))
(assert (= y$432 (= y$n0s8 y$v_neigh_Node_4)))
(assert (= y$434 (= y$n0s8 y$v_neigh_Node_5)))
(assert (= y$436 (= y$n0s8 y$v_neigh_Node_6)))
(assert (= y$438 (= y$n0s8 y$v_nr_leaders)))
(assert (= y$440 (= y$n0s8 y$v_number_Node_0)))
(assert (= y$442 (= y$n0s8 y$v_number_Node_1)))
(assert (= y$444 (= y$n0s8 y$v_number_Node_2)))
(assert (= y$446 (= y$n0s8 y$v_number_Node_3)))
(assert (= y$448 (= y$n0s8 y$v_number_Node_4)))
(assert (= y$450 (= y$n0s8 y$v_number_Node_5)))
(assert (= y$452 (= y$n0s8 y$v_number_Node_6)))
(assert (= y$prop (not y$10119)))
(assert (= y$w$50_op (Concat_32_8_24 y$v_nr_leaders y$n0s24)))
(assert (= y$v3_1517448499_230_op (GrEq_1_32_32 y$n1s32 y$w$50_op)))
(assert (= y$v3_1517448499_230_op (not y$9975)))
(assert (= y$id232_op (and y$169 y$9975)))
(assert (= y$id232_op (not y$9978)))
(assert (= y$9979 (= y$prop y$9978)))
(assert (= y$10131 (and y$1 y$3 y$5 y$7 y$9 y$11 y$13 y$15 y$17 y$19 y$21 y$23 y$25 y$27 y$29 y$31 y$33 y$35 y$37 y$39 y$41 y$43 y$45 y$47 y$49 y$51 y$53 y$55 y$57 y$59 y$61 y$63 y$65 y$67 y$69 y$71 y$73 y$75 y$77 y$79 y$81 y$83 y$85 y$87 y$89 y$91 y$93 y$95 y$97 y$99 y$101 y$103 y$105 y$107 y$109 y$111 y$113 y$115 y$117 y$119 y$121 y$123 y$125 y$127 y$129 y$131 y$133 y$135 y$137 y$139 y$141 y$143 y$145 y$147 y$149 y$151 y$153 y$155 y$157 y$159 y$161 y$163 y$165 y$167 y$169 y$172 y$174 y$176 y$178 y$180 y$182 y$184 y$186 y$188 y$190 y$192 y$194 y$196 y$198 y$200 y$202 y$204 y$206 y$208 y$210 y$212 y$214 y$216 y$218 y$220 y$222 y$224 y$226 y$228 y$230 y$232 y$234 y$236 y$238 y$240 y$242 y$244 y$246 y$248 y$250 y$252 y$254 y$256 y$258 y$260 y$262 y$264 y$266 y$268 y$270 y$272 y$274 y$276 y$278 y$280 y$282 y$284 y$286 y$288 y$290 y$292 y$294 y$296 y$298 y$300 y$302 y$304 y$306 y$308 y$310 y$312 y$314 y$316 y$318 y$320 y$322 y$324 y$326 y$328 y$330 y$332 y$334 y$336 y$338 y$340 y$342 y$344 y$346 y$348 y$350 y$352 y$354 y$356 y$358 y$360 y$362 y$364 y$366 y$368 y$370 y$372 y$374 y$376 y$378 y$380 y$382 y$384 y$386 y$388 y$390 y$392 y$394 y$396 y$398 y$400 y$402 y$404 y$406 y$408 y$410 y$412 y$414 y$416 y$418 y$420 y$422 y$424 y$426 y$428 y$430 y$432 y$434 y$436 y$438 y$440 y$442 y$444 y$446 y$448 y$450 y$452 y$10119 y$9979)))
(assert y$10131)
(check-sat)
(exit)
